MLT08
Position Depot: Center
Horizon for Depot: Large
Position of customers: Mixt
Distribution of the demand: Medium
Width of time windows: Tight
Distribution of the service: Large

VEHICLE 
NUMBER 	 CAPACITY 
 16 	 	 97 
 
CUSTOMER
CUST NO. 	 XCOORD.  	 YCOORD. 	 DEMAND 	 READY TIME 	 DUE DATE 	 SERVICE TIME 
 0 	 	 500 	 	 500 	 	 0 	 	 0 	 	 4719 	 	 0 
  1 	 	 186 	 	 422 	 	 74 	 	 2875 	 	 3030 	 	 167 
  2 	 	 980 	 	 13 	 	 3 	 	 568 	 	 752 	 	 122 
  3 	 	 648 	 	 884 	 	 7 	 	 3475 	 	 3667 	 	 120 
  4 	 	 813 	 	 562 	 	 7 	 	 364 	 	 424 	 	 186 
  5 	 	 0 	 	 399 	 	 5 	 	 1056 	 	 1135 	 	 132 
  6 	 	 452 	 	 427 	 	 5 	 	 1304 	 	 1407 	 	 113 
  7 	 	 595 	 	 890 	 	 2 	 	 2599 	 	 2757 	 	 182 
  8 	 	 519 	 	 273 	 	 3 	 	 2981 	 	 3181 	 	 139 
  9 	 	 567 	 	 911 	 	 7 	 	 863 	 	 997 	 	 172 
  10 	 	 737 	 	 584 	 	 9 	 	 1422 	 	 1564 	 	 123 
  11 	 	 515 	 	 442 	 	 7 	 	 1496 	 	 1607 	 	 151 
  12 	 	 496 	 	 476 	 	 76 	 	 3985 	 	 4119 	 	 145 
  13 	 	 579 	 	 820 	 	 3 	 	 1024 	 	 1132 	 	 103 
  14 	 	 699 	 	 897 	 	 3 	 	 2454 	 	 2545 	 	 115 
  15 	 	 477 	 	 854 	 	 5 	 	 4210 	 	 4380 	 	 137 
  16 	 	 808 	 	 35 	 	 3 	 	 4523 	 	 4690 	 	 182 
  17 	 	 615 	 	 263 	 	 5 	 	 4017 	 	 4154 	 	 171 
  18 	 	 128 	 	 588 	 	 84 	 	 359 	 	 420 	 	 131 
  19 	 	 198 	 	 473 	 	 7 	 	 2319 	 	 2440 	 	 129 
  20 	 	 683 	 	 878 	 	 1 	 	 354 	 	 461 	 	 111 
  21 	 	 503 	 	 199 	 	 6 	 	 4602 	 	 4693 	 	 134 
  22 	 	 190 	 	 422 	 	 56 	 	 1288 	 	 1411 	 	 181 
  23 	 	 145 	 	 345 	 	 7 	 	 1835 	 	 1996 	 	 174 
  24 	 	 869 	 	 594 	 	 4 	 	 596 	 	 792 	 	 185 
  25 	 	 809 	 	 743 	 	 3 	 	 3156 	 	 3268 	 	 144 
  26 	 	 545 	 	 375 	 	 8 	 	 1513 	 	 1642 	 	 103 
  27 	 	 496 	 	 98 	 	 62 	 	 2830 	 	 2925 	 	 118 
  28 	 	 12 	 	 71 	 	 1 	 	 2749 	 	 2900 	 	 184 
  29 	 	 946 	 	 794 	 	 5 	 	 1941 	 	 2066 	 	 107 
  30 	 	 99 	 	 578 	 	 61 	 	 1566 	 	 1726 	 	 150 
  31 	 	 931 	 	 650 	 	 7 	 	 645 	 	 782 	 	 103 
  32 	 	 948 	 	 453 	 	 6 	 	 2173 	 	 2373 	 	 163 
  33 	 	 522 	 	 106 	 	 8 	 	 1641 	 	 1774 	 	 143 
  34 	 	 741 	 	 660 	 	 8 	 	 131 	 	 318 	 	 156 
  35 	 	 835 	 	 389 	 	 4 	 	 1787 	 	 1909 	 	 187 
  36 	 	 161 	 	 431 	 	 81 	 	 1029 	 	 1106 	 	 193 
  37 	 	 297 	 	 828 	 	 4 	 	 615 	 	 767 	 	 157 
  38 	 	 293 	 	 106 	 	 7 	 	 3366 	 	 3424 	 	 169 
  39 	 	 450 	 	 884 	 	 2 	 	 1963 	 	 2157 	 	 153 
  40 	 	 912 	 	 25 	 	 8 	 	 3414 	 	 3567 	 	 198 
  41 	 	 917 	 	 308 	 	 4 	 	 2807 	 	 2863 	 	 115 
  42 	 	 510 	 	 683 	 	 53 	 	 886 	 	 967 	 	 143 
  43 	 	 479 	 	 394 	 	 89 	 	 3614 	 	 3756 	 	 152 
  44 	 	 913 	 	 785 	 	 8 	 	 3680 	 	 3877 	 	 148 
  45 	 	 591 	 	 931 	 	 2 	 	 800 	 	 968 	 	 191 
  46 	 	 568 	 	 651 	 	 79 	 	 1545 	 	 1739 	 	 158 
  47 	 	 251 	 	 950 	 	 1 	 	 2815 	 	 2968 	 	 171 
  48 	 	 818 	 	 571 	 	 10 	 	 2796 	 	 2913 	 	 103 
  49 	 	 333 	 	 881 	 	 56 	 	 4108 	 	 4294 	 	 135 
  50 	 	 323 	 	 36 	 	 4 	 	 3266 	 	 3466 	 	 157 
 